c File: data_files/evolved_graphs/g8102.col
c
c Auto generated graph
c
p edge 100 96
e 1 56
e 1 57
e 1 58
e 1 59
e 1 60
e 1 61
e 1 68
e 1 69
e 2 56
e 2 57
e 2 58
e 2 59
e 2 60
e 2 61
e 2 68
e 2 69
e 3 56
e 3 57
e 3 58
e 3 59
e 3 60
e 3 61
e 3 68
e 3 69
e 4 56
e 4 57
e 4 58
e 4 59
e 4 60
e 4 61
e 4 68
e 4 69
e 5 56
e 5 57
e 5 58
e 5 59
e 5 60
e 5 61
e 5 68
e 5 69
e 6 56
e 6 57
e 6 58
e 6 59
e 6 60
e 6 61
e 6 68
e 6 69
e 7 56
e 7 57
e 7 58
e 7 59
e 7 60
e 7 61
e 7 68
e 7 69
e 8 56
e 8 57
e 8 58
e 8 59
e 8 60
e 8 61
e 8 68
e 8 69
e 9 56
e 9 57
e 9 58
e 9 59
e 9 60
e 9 61
e 9 68
e 9 69
e 10 56
e 10 57
e 10 58
e 10 59
e 10 60
e 10 61
e 10 68
e 10 69
e 11 56
e 11 57
e 11 58
e 11 59
e 11 60
e 11 61
e 11 68
e 11 69
e 12 56
e 12 57
e 12 58
e 12 59
e 12 60
e 12 61
e 12 68
e 12 69
